param m := 6;
param n := 9;
param T := 20;
param M := 100;

param p : 1    2     3     4     5     6   7   8   9   :=
1         3    4     2     7     8     3   5   4   8    
2         6    8     4     9     3     4   2   6   5    
3         4    1     5     6     7     4   4   5   7    
4         4    3     6     6     7     5   4   5   6    
5         6    7     4     9     4     6   2   6   6    
6         4    1     5     6     7     4   7   5   8    ;

set A := 
1 2
2 3
1 5
2 6;
